(set-info :smt-lib-version 2.6)
(set-logic QF_NIA)
(set-info :source |
Generated by: Cristina Borralleras, Daniel Larraz, Albert Oliveras, Enric Rodriguez-Carbonell, Albert Rubio
Generated on: 2017-04-27
Generator: VeryMax
Application: Termination proving
Target solver: barcelogic
|)
(set-info :license "https://creativecommons.org/licenses/by/4.0/")
(set-info :category "industrial")
(set-info :status sat)
(declare-fun Nl4main_x1 () Int)
(declare-fun Nl4main_y1 () Int)
(declare-fun Nl4main_a1 () Int)
(declare-fun Nl4main_b1 () Int)
(declare-fun Nl4main_x2 () Int)
(declare-fun Nl4main_y2 () Int)
(declare-fun Nl4main_a2 () Int)
(declare-fun Nl4main_b2 () Int)
(declare-fun Nl4main_x3 () Int)
(declare-fun Nl4main_y3 () Int)
(declare-fun Nl4main_a3 () Int)
(declare-fun Nl4main_b3 () Int)
(declare-fun lam0n0 () Int)
(declare-fun lam0n1 () Int)
(declare-fun lam0n2 () Int)
(declare-fun lam0n3 () Int)
(declare-fun Nl4CT1 () Int)
(declare-fun Nl4CT2 () Int)
(declare-fun Nl4CT3 () Int)
(declare-fun lam1n0 () Int)
(declare-fun lam1n1 () Int)
(declare-fun lam1n2 () Int)
(declare-fun lam1n3 () Int)
(declare-fun lam2n0 () Int)
(declare-fun lam2n1 () Int)
(declare-fun lam2n2 () Int)
(declare-fun lam2n3 () Int)
(declare-fun lam3n0 () Int)
(declare-fun lam3n1 () Int)
(declare-fun lam3n2 () Int)
(declare-fun lam3n3 () Int)
(declare-fun lam4n0 () Int)
(declare-fun lam4n1 () Int)
(declare-fun lam4n2 () Int)
(declare-fun lam4n3 () Int)
(declare-fun lam4n4 () Int)
(declare-fun lam5n0 () Int)
(declare-fun lam5n1 () Int)
(declare-fun lam5n2 () Int)
(declare-fun lam5n3 () Int)
(declare-fun lam5n4 () Int)
(declare-fun lam6n0 () Int)
(declare-fun lam6n1 () Int)
(declare-fun lam6n2 () Int)
(declare-fun lam6n3 () Int)
(declare-fun lam6n4 () Int)
(declare-fun lam7n0 () Int)
(declare-fun lam7n1 () Int)
(declare-fun lam7n2 () Int)
(declare-fun lam7n3 () Int)
(declare-fun lam7n4 () Int)
(declare-fun lam8n0 () Int)
(declare-fun lam8n5 () Int)
(declare-fun lam8n1 () Int)
(declare-fun lam8n2 () Int)
(declare-fun lam8n3 () Int)
(declare-fun lam8n4 () Int)
(declare-fun lam9n0 () Int)
(declare-fun lam9n5 () Int)
(declare-fun lam9n1 () Int)
(declare-fun lam9n2 () Int)
(declare-fun lam9n3 () Int)
(declare-fun lam9n4 () Int)
(declare-fun lam10n0 () Int)
(declare-fun lam10n5 () Int)
(declare-fun lam10n1 () Int)
(declare-fun lam10n2 () Int)
(declare-fun lam10n3 () Int)
(declare-fun lam10n4 () Int)
(declare-fun undef7 () Int)
(declare-fun main_x () Int)
(declare-fun main_y () Int)
(declare-fun undef8 () Int)
(declare-fun main_a () Int)
(declare-fun undef5 () Int)
(declare-fun main_b () Int)
(declare-fun undef6 () Int)
(declare-fun lam14n0 () Int)
(declare-fun lam14n1 () Int)
(declare-fun lam14n2 () Int)
(declare-fun lam14n3 () Int)
(declare-fun RFN1_CT () Int)
(declare-fun RFN1_main_x () Int)
(declare-fun RFN1_main_y () Int)
(declare-fun RFN1_main_a () Int)
(declare-fun RFN1_main_b () Int)
(declare-fun lam18n0 () Int)
(declare-fun lam18n1 () Int)
(declare-fun lam18n2 () Int)
(declare-fun lam18n3 () Int)
(declare-fun lam18n4 () Int)
(declare-fun lam12n0 () Int)
(declare-fun lam12n1 () Int)
(declare-fun lam12n2 () Int)
(declare-fun lam12n3 () Int)
(declare-fun lam13n0 () Int)
(declare-fun lam13n1 () Int)
(declare-fun lam13n2 () Int)
(declare-fun lam13n3 () Int)
(declare-fun lam16n0 () Int)
(declare-fun lam16n1 () Int)
(declare-fun lam16n2 () Int)
(declare-fun lam16n3 () Int)
(declare-fun lam16n4 () Int)
(declare-fun lam17n0 () Int)
(declare-fun lam17n1 () Int)
(declare-fun lam17n2 () Int)
(declare-fun lam17n3 () Int)
(declare-fun lam17n4 () Int)
(declare-fun lam11n0 () Int)
(declare-fun lam11n1 () Int)
(declare-fun lam11n2 () Int)
(declare-fun lam11n3 () Int)
(declare-fun lam15n0 () Int)
(declare-fun lam15n1 () Int)
(declare-fun lam15n2 () Int)
(declare-fun lam15n3 () Int)
(declare-fun lam15n4 () Int)
(assert ( and ( <= ( - 1 ) Nl4main_x1 ) ( <= Nl4main_x1 1 ) ( <= ( - 1 ) Nl4main_y1 ) ( <= Nl4main_y1 1 ) ( <= ( - 1 ) Nl4main_a1 ) ( <= Nl4main_a1 1 ) ( <= ( - 1 ) Nl4main_b1 ) ( <= Nl4main_b1 1 ) ( <= ( - 1 ) Nl4main_x2 ) ( <= Nl4main_x2 1 ) ( <= ( - 1 ) Nl4main_y2 ) ( <= Nl4main_y2 1 ) ( <= ( - 1 ) Nl4main_a2 ) ( <= Nl4main_a2 1 ) ( <= ( - 1 ) Nl4main_b2 ) ( <= Nl4main_b2 1 ) ( <= ( - 1 ) Nl4main_x3 ) ( <= Nl4main_x3 1 ) ( <= ( - 1 ) Nl4main_y3 ) ( <= Nl4main_y3 1 ) ( <= ( - 1 ) Nl4main_a3 ) ( <= Nl4main_a3 1 ) ( <= ( - 1 ) Nl4main_b3 ) ( <= Nl4main_b3 1 ) ))
(assert ( or ( and ( >= lam0n0 0 ) ( >= lam0n1 0 ) ( >= lam0n2 0 ) ( >= lam0n3 0 ) ( > ( + ( * Nl4CT1 lam0n1 ) ( * Nl4CT2 lam0n2 ) ( * Nl4CT3 lam0n3 ) ( - 1 ) ) 0 ) ( = ( + ( * ( - 1 ) lam0n0 ) ( * Nl4main_x1 lam0n1 ) ( * Nl4main_x2 lam0n2 ) ( * Nl4main_x3 lam0n3 ) ) 0 ) ( = ( + ( * Nl4main_y1 lam0n1 ) ( * Nl4main_y2 lam0n2 ) ( * Nl4main_y3 lam0n3 ) ) 0 ) ( = ( + ( * Nl4main_a1 lam0n1 ) ( * Nl4main_a2 lam0n2 ) ( * Nl4main_a3 lam0n3 ) ) 0 ) ( = ( + ( * Nl4main_b1 lam0n1 ) ( * Nl4main_b2 lam0n2 ) ( * Nl4main_b3 lam0n3 ) ) 0 ) ) ( and ( >= lam1n0 0 ) ( >= lam1n1 0 ) ( >= lam1n2 0 ) ( >= lam1n3 0 ) ( > ( + ( * Nl4CT1 lam1n1 ) ( * Nl4CT2 lam1n2 ) ( * Nl4CT3 lam1n3 ) ( - 1 ( + ( + Nl4CT1 ( * Nl4main_x1 ( - 1 ) ) ) ( * Nl4main_y1 ( - 1 ) ) ) ) ) 0 ) ( = ( + ( * ( - 1 ) lam1n0 ) ( * Nl4main_x1 lam1n1 ) ( * Nl4main_x2 lam1n2 ) ( * Nl4main_x3 lam1n3 ) ( - ( + 0 ( * Nl4main_x1 1 ) ) ) ) 0 ) ( = ( + ( * Nl4main_y1 lam1n1 ) ( * Nl4main_y2 lam1n2 ) ( * Nl4main_y3 lam1n3 ) ( - ( + 0 ( * Nl4main_y1 1 ) ) ) ) 0 ) ( = ( + ( * Nl4main_a1 lam1n1 ) ( * Nl4main_a2 lam1n2 ) ( * Nl4main_a3 lam1n3 ) ( - ( + ( + ( + 0 ( * Nl4main_x1 1 ) ) ( * Nl4main_y1 ( - 1 ) ) ) Nl4main_a1 ) ) ) 0 ) ( = ( + ( * Nl4main_b1 lam1n1 ) ( * Nl4main_b2 lam1n2 ) ( * Nl4main_b3 lam1n3 ) ( - ( + ( + ( + 0 ( * Nl4main_x1 ( - 1 ) ) ) ( * Nl4main_y1 1 ) ) Nl4main_b1 ) ) ) 0 ) ) ))
(assert ( or ( and ( >= lam0n0 0 ) ( >= lam0n1 0 ) ( >= lam0n2 0 ) ( >= lam0n3 0 ) ( > ( + ( * Nl4CT1 lam0n1 ) ( * Nl4CT2 lam0n2 ) ( * Nl4CT3 lam0n3 ) ( - 1 ) ) 0 ) ( = ( + ( * ( - 1 ) lam0n0 ) ( * Nl4main_x1 lam0n1 ) ( * Nl4main_x2 lam0n2 ) ( * Nl4main_x3 lam0n3 ) ) 0 ) ( = ( + ( * Nl4main_y1 lam0n1 ) ( * Nl4main_y2 lam0n2 ) ( * Nl4main_y3 lam0n3 ) ) 0 ) ( = ( + ( * Nl4main_a1 lam0n1 ) ( * Nl4main_a2 lam0n2 ) ( * Nl4main_a3 lam0n3 ) ) 0 ) ( = ( + ( * Nl4main_b1 lam0n1 ) ( * Nl4main_b2 lam0n2 ) ( * Nl4main_b3 lam0n3 ) ) 0 ) ) ( and ( >= lam2n0 0 ) ( >= lam2n1 0 ) ( >= lam2n2 0 ) ( >= lam2n3 0 ) ( > ( + ( * Nl4CT1 lam2n1 ) ( * Nl4CT2 lam2n2 ) ( * Nl4CT3 lam2n3 ) ( - 1 ( + ( + Nl4CT2 ( * Nl4main_x2 ( - 1 ) ) ) ( * Nl4main_y2 ( - 1 ) ) ) ) ) 0 ) ( = ( + ( * ( - 1 ) lam2n0 ) ( * Nl4main_x1 lam2n1 ) ( * Nl4main_x2 lam2n2 ) ( * Nl4main_x3 lam2n3 ) ( - ( + 0 ( * Nl4main_x2 1 ) ) ) ) 0 ) ( = ( + ( * Nl4main_y1 lam2n1 ) ( * Nl4main_y2 lam2n2 ) ( * Nl4main_y3 lam2n3 ) ( - ( + 0 ( * Nl4main_y2 1 ) ) ) ) 0 ) ( = ( + ( * Nl4main_a1 lam2n1 ) ( * Nl4main_a2 lam2n2 ) ( * Nl4main_a3 lam2n3 ) ( - ( + ( + ( + 0 ( * Nl4main_x2 1 ) ) ( * Nl4main_y2 ( - 1 ) ) ) Nl4main_a2 ) ) ) 0 ) ( = ( + ( * Nl4main_b1 lam2n1 ) ( * Nl4main_b2 lam2n2 ) ( * Nl4main_b3 lam2n3 ) ( - ( + ( + ( + 0 ( * Nl4main_x2 ( - 1 ) ) ) ( * Nl4main_y2 1 ) ) Nl4main_b2 ) ) ) 0 ) ) ))
(assert ( or ( and ( >= lam0n0 0 ) ( >= lam0n1 0 ) ( >= lam0n2 0 ) ( >= lam0n3 0 ) ( > ( + ( * Nl4CT1 lam0n1 ) ( * Nl4CT2 lam0n2 ) ( * Nl4CT3 lam0n3 ) ( - 1 ) ) 0 ) ( = ( + ( * ( - 1 ) lam0n0 ) ( * Nl4main_x1 lam0n1 ) ( * Nl4main_x2 lam0n2 ) ( * Nl4main_x3 lam0n3 ) ) 0 ) ( = ( + ( * Nl4main_y1 lam0n1 ) ( * Nl4main_y2 lam0n2 ) ( * Nl4main_y3 lam0n3 ) ) 0 ) ( = ( + ( * Nl4main_a1 lam0n1 ) ( * Nl4main_a2 lam0n2 ) ( * Nl4main_a3 lam0n3 ) ) 0 ) ( = ( + ( * Nl4main_b1 lam0n1 ) ( * Nl4main_b2 lam0n2 ) ( * Nl4main_b3 lam0n3 ) ) 0 ) ) ( and ( >= lam3n0 0 ) ( >= lam3n1 0 ) ( >= lam3n2 0 ) ( >= lam3n3 0 ) ( > ( + ( * Nl4CT1 lam3n1 ) ( * Nl4CT2 lam3n2 ) ( * Nl4CT3 lam3n3 ) ( - 1 ( + ( + Nl4CT3 ( * Nl4main_x3 ( - 1 ) ) ) ( * Nl4main_y3 ( - 1 ) ) ) ) ) 0 ) ( = ( + ( * ( - 1 ) lam3n0 ) ( * Nl4main_x1 lam3n1 ) ( * Nl4main_x2 lam3n2 ) ( * Nl4main_x3 lam3n3 ) ( - ( + 0 ( * Nl4main_x3 1 ) ) ) ) 0 ) ( = ( + ( * Nl4main_y1 lam3n1 ) ( * Nl4main_y2 lam3n2 ) ( * Nl4main_y3 lam3n3 ) ( - ( + 0 ( * Nl4main_y3 1 ) ) ) ) 0 ) ( = ( + ( * Nl4main_a1 lam3n1 ) ( * Nl4main_a2 lam3n2 ) ( * Nl4main_a3 lam3n3 ) ( - ( + ( + ( + 0 ( * Nl4main_x3 1 ) ) ( * Nl4main_y3 ( - 1 ) ) ) Nl4main_a3 ) ) ) 0 ) ( = ( + ( * Nl4main_b1 lam3n1 ) ( * Nl4main_b2 lam3n2 ) ( * Nl4main_b3 lam3n3 ) ( - ( + ( + ( + 0 ( * Nl4main_x3 ( - 1 ) ) ) ( * Nl4main_y3 1 ) ) Nl4main_b3 ) ) ) 0 ) ) ))
(assert ( or ( and ( >= lam4n0 0 ) ( >= lam4n1 0 ) ( >= lam4n2 0 ) ( >= lam4n3 0 ) ( >= lam4n4 0 ) ( > ( + ( * 1 lam4n1 ) ( * Nl4CT1 lam4n2 ) ( * Nl4CT2 lam4n3 ) ( * Nl4CT3 lam4n4 ) ( - 1 ) ) 0 ) ( = ( + ( * 1 lam4n1 ) ( * Nl4main_x1 lam4n2 ) ( * Nl4main_x2 lam4n3 ) ( * Nl4main_x3 lam4n4 ) ) 0 ) ( = ( + ( * ( - 1 ) lam4n0 ) ( * Nl4main_y1 lam4n2 ) ( * Nl4main_y2 lam4n3 ) ( * Nl4main_y3 lam4n4 ) ) 0 ) ( = ( + ( * Nl4main_a1 lam4n2 ) ( * Nl4main_a2 lam4n3 ) ( * Nl4main_a3 lam4n4 ) ) 0 ) ( = ( + ( * Nl4main_b1 lam4n2 ) ( * Nl4main_b2 lam4n3 ) ( * Nl4main_b3 lam4n4 ) ) 0 ) ) ( and ( >= lam5n0 0 ) ( >= lam5n1 0 ) ( >= lam5n2 0 ) ( >= lam5n3 0 ) ( >= lam5n4 0 ) ( > ( + ( * 1 lam5n1 ) ( * Nl4CT1 lam5n2 ) ( * Nl4CT2 lam5n3 ) ( * Nl4CT3 lam5n4 ) ( - 1 ( + ( + Nl4CT1 ( * Nl4main_x1 ( - 1 ) ) ) ( * Nl4main_y1 ( - 1 ) ) ) ) ) 0 ) ( = ( + ( * 1 lam5n1 ) ( * Nl4main_x1 lam5n2 ) ( * Nl4main_x2 lam5n3 ) ( * Nl4main_x3 lam5n4 ) ( - ( + 0 ( * Nl4main_x1 1 ) ) ) ) 0 ) ( = ( + ( * ( - 1 ) lam5n0 ) ( * Nl4main_y1 lam5n2 ) ( * Nl4main_y2 lam5n3 ) ( * Nl4main_y3 lam5n4 ) ( - ( + 0 ( * Nl4main_y1 1 ) ) ) ) 0 ) ( = ( + ( * Nl4main_a1 lam5n2 ) ( * Nl4main_a2 lam5n3 ) ( * Nl4main_a3 lam5n4 ) ( - ( + ( + ( + 0 ( * Nl4main_x1 1 ) ) ( * Nl4main_y1 ( - 1 ) ) ) Nl4main_a1 ) ) ) 0 ) ( = ( + ( * Nl4main_b1 lam5n2 ) ( * Nl4main_b2 lam5n3 ) ( * Nl4main_b3 lam5n4 ) ( - ( + ( + ( + 0 ( * Nl4main_x1 ( - 1 ) ) ) ( * Nl4main_y1 1 ) ) Nl4main_b1 ) ) ) 0 ) ) ))
(assert ( or ( and ( >= lam4n0 0 ) ( >= lam4n1 0 ) ( >= lam4n2 0 ) ( >= lam4n3 0 ) ( >= lam4n4 0 ) ( > ( + ( * 1 lam4n1 ) ( * Nl4CT1 lam4n2 ) ( * Nl4CT2 lam4n3 ) ( * Nl4CT3 lam4n4 ) ( - 1 ) ) 0 ) ( = ( + ( * 1 lam4n1 ) ( * Nl4main_x1 lam4n2 ) ( * Nl4main_x2 lam4n3 ) ( * Nl4main_x3 lam4n4 ) ) 0 ) ( = ( + ( * ( - 1 ) lam4n0 ) ( * Nl4main_y1 lam4n2 ) ( * Nl4main_y2 lam4n3 ) ( * Nl4main_y3 lam4n4 ) ) 0 ) ( = ( + ( * Nl4main_a1 lam4n2 ) ( * Nl4main_a2 lam4n3 ) ( * Nl4main_a3 lam4n4 ) ) 0 ) ( = ( + ( * Nl4main_b1 lam4n2 ) ( * Nl4main_b2 lam4n3 ) ( * Nl4main_b3 lam4n4 ) ) 0 ) ) ( and ( >= lam6n0 0 ) ( >= lam6n1 0 ) ( >= lam6n2 0 ) ( >= lam6n3 0 ) ( >= lam6n4 0 ) ( > ( + ( * 1 lam6n1 ) ( * Nl4CT1 lam6n2 ) ( * Nl4CT2 lam6n3 ) ( * Nl4CT3 lam6n4 ) ( - 1 ( + ( + Nl4CT2 ( * Nl4main_x2 ( - 1 ) ) ) ( * Nl4main_y2 ( - 1 ) ) ) ) ) 0 ) ( = ( + ( * 1 lam6n1 ) ( * Nl4main_x1 lam6n2 ) ( * Nl4main_x2 lam6n3 ) ( * Nl4main_x3 lam6n4 ) ( - ( + 0 ( * Nl4main_x2 1 ) ) ) ) 0 ) ( = ( + ( * ( - 1 ) lam6n0 ) ( * Nl4main_y1 lam6n2 ) ( * Nl4main_y2 lam6n3 ) ( * Nl4main_y3 lam6n4 ) ( - ( + 0 ( * Nl4main_y2 1 ) ) ) ) 0 ) ( = ( + ( * Nl4main_a1 lam6n2 ) ( * Nl4main_a2 lam6n3 ) ( * Nl4main_a3 lam6n4 ) ( - ( + ( + ( + 0 ( * Nl4main_x2 1 ) ) ( * Nl4main_y2 ( - 1 ) ) ) Nl4main_a2 ) ) ) 0 ) ( = ( + ( * Nl4main_b1 lam6n2 ) ( * Nl4main_b2 lam6n3 ) ( * Nl4main_b3 lam6n4 ) ( - ( + ( + ( + 0 ( * Nl4main_x2 ( - 1 ) ) ) ( * Nl4main_y2 1 ) ) Nl4main_b2 ) ) ) 0 ) ) ))
(assert ( or ( and ( >= lam4n0 0 ) ( >= lam4n1 0 ) ( >= lam4n2 0 ) ( >= lam4n3 0 ) ( >= lam4n4 0 ) ( > ( + ( * 1 lam4n1 ) ( * Nl4CT1 lam4n2 ) ( * Nl4CT2 lam4n3 ) ( * Nl4CT3 lam4n4 ) ( - 1 ) ) 0 ) ( = ( + ( * 1 lam4n1 ) ( * Nl4main_x1 lam4n2 ) ( * Nl4main_x2 lam4n3 ) ( * Nl4main_x3 lam4n4 ) ) 0 ) ( = ( + ( * ( - 1 ) lam4n0 ) ( * Nl4main_y1 lam4n2 ) ( * Nl4main_y2 lam4n3 ) ( * Nl4main_y3 lam4n4 ) ) 0 ) ( = ( + ( * Nl4main_a1 lam4n2 ) ( * Nl4main_a2 lam4n3 ) ( * Nl4main_a3 lam4n4 ) ) 0 ) ( = ( + ( * Nl4main_b1 lam4n2 ) ( * Nl4main_b2 lam4n3 ) ( * Nl4main_b3 lam4n4 ) ) 0 ) ) ( and ( >= lam7n0 0 ) ( >= lam7n1 0 ) ( >= lam7n2 0 ) ( >= lam7n3 0 ) ( >= lam7n4 0 ) ( > ( + ( * 1 lam7n1 ) ( * Nl4CT1 lam7n2 ) ( * Nl4CT2 lam7n3 ) ( * Nl4CT3 lam7n4 ) ( - 1 ( + ( + Nl4CT3 ( * Nl4main_x3 ( - 1 ) ) ) ( * Nl4main_y3 ( - 1 ) ) ) ) ) 0 ) ( = ( + ( * 1 lam7n1 ) ( * Nl4main_x1 lam7n2 ) ( * Nl4main_x2 lam7n3 ) ( * Nl4main_x3 lam7n4 ) ( - ( + 0 ( * Nl4main_x3 1 ) ) ) ) 0 ) ( = ( + ( * ( - 1 ) lam7n0 ) ( * Nl4main_y1 lam7n2 ) ( * Nl4main_y2 lam7n3 ) ( * Nl4main_y3 lam7n4 ) ( - ( + 0 ( * Nl4main_y3 1 ) ) ) ) 0 ) ( = ( + ( * Nl4main_a1 lam7n2 ) ( * Nl4main_a2 lam7n3 ) ( * Nl4main_a3 lam7n4 ) ( - ( + ( + ( + 0 ( * Nl4main_x3 1 ) ) ( * Nl4main_y3 ( - 1 ) ) ) Nl4main_a3 ) ) ) 0 ) ( = ( + ( * Nl4main_b1 lam7n2 ) ( * Nl4main_b2 lam7n3 ) ( * Nl4main_b3 lam7n4 ) ( - ( + ( + ( + 0 ( * Nl4main_x3 ( - 1 ) ) ) ( * Nl4main_y3 1 ) ) Nl4main_b3 ) ) ) 0 ) ) ))
(assert ( and ( <= ( + 1 undef7 ) 0 ) ( = ( + main_x ( * ( - 1 ) undef7 ) ) 0 ) ( = ( + main_y ( * ( - 1 ) undef8 ) ) 0 ) ( = ( + main_a ( * ( - 1 ) undef5 ) ) 0 ) ( = ( + main_b ( * ( - 1 ) undef6 ) ) 0 ) ( = ( + ( - 1 ) undef5 ( * ( - 1 ) undef6 ) ) 0 ) ( <= ( + Nl4CT1 ( * ( + 0 Nl4main_x1 ) main_x ) ( * ( + 0 Nl4main_y1 ) main_y ) ( * ( + 0 Nl4main_a1 ) main_a ) ( * ( + 0 Nl4main_b1 ) main_b ) ) 0 ) ( <= ( + Nl4CT2 ( * ( + 0 Nl4main_x2 ) main_x ) ( * ( + 0 Nl4main_y2 ) main_y ) ( * ( + 0 Nl4main_a2 ) main_a ) ( * ( + 0 Nl4main_b2 ) main_b ) ) 0 ) ( <= ( + Nl4CT3 ( * ( + 0 Nl4main_x3 ) main_x ) ( * ( + 0 Nl4main_y3 ) main_y ) ( * ( + 0 Nl4main_a3 ) main_a ) ( * ( + 0 Nl4main_b3 ) main_b ) ) 0 ) ))
(assert ( or ( and ( and ( and ( >= lam14n0 0 ) ( >= lam14n1 0 ) ( >= lam14n2 0 ) ( >= lam14n3 0 ) ( > ( + ( * Nl4CT1 lam14n1 ) ( * Nl4CT2 lam14n2 ) ( * Nl4CT3 lam14n3 ) ( - 1 ( - ( + ( + RFN1_CT ( * RFN1_main_x ( - 1 ) ) ) ( * RFN1_main_y ( - 1 ) ) ) RFN1_CT ) ) ) 0 ) ( = ( + ( * ( - 1 ) lam14n0 ) ( * Nl4main_x1 lam14n1 ) ( * Nl4main_x2 lam14n2 ) ( * Nl4main_x3 lam14n3 ) ( - ( - ( + 0 ( * RFN1_main_x 1 ) ) RFN1_main_x ) ) ) 0 ) ( = ( + ( * Nl4main_y1 lam14n1 ) ( * Nl4main_y2 lam14n2 ) ( * Nl4main_y3 lam14n3 ) ( - ( - ( + 0 ( * RFN1_main_y 1 ) ) RFN1_main_y ) ) ) 0 ) ( = ( + ( * Nl4main_a1 lam14n1 ) ( * Nl4main_a2 lam14n2 ) ( * Nl4main_a3 lam14n3 ) ( - ( - ( + ( + ( + 0 ( * RFN1_main_x 1 ) ) ( * RFN1_main_y ( - 1 ) ) ) RFN1_main_a ) RFN1_main_a ) ) ) 0 ) ( = ( + ( * Nl4main_b1 lam14n1 ) ( * Nl4main_b2 lam14n2 ) ( * Nl4main_b3 lam14n3 ) ( - ( - ( + ( + ( + 0 ( * RFN1_main_x ( - 1 ) ) ) ( * RFN1_main_y 1 ) ) RFN1_main_b ) RFN1_main_b ) ) ) 0 ) ) ( and ( >= lam18n0 0 ) ( >= lam18n1 0 ) ( >= lam18n2 0 ) ( >= lam18n3 0 ) ( >= lam18n4 0 ) ( > ( + ( * 1 lam18n1 ) ( * Nl4CT1 lam18n2 ) ( * Nl4CT2 lam18n3 ) ( * Nl4CT3 lam18n4 ) ( - 1 ( - ( + ( + RFN1_CT ( * RFN1_main_x ( - 1 ) ) ) ( * RFN1_main_y ( - 1 ) ) ) RFN1_CT ) ) ) 0 ) ( = ( + ( * 1 lam18n1 ) ( * Nl4main_x1 lam18n2 ) ( * Nl4main_x2 lam18n3 ) ( * Nl4main_x3 lam18n4 ) ( - ( - ( + 0 ( * RFN1_main_x 1 ) ) RFN1_main_x ) ) ) 0 ) ( = ( + ( * ( - 1 ) lam18n0 ) ( * Nl4main_y1 lam18n2 ) ( * Nl4main_y2 lam18n3 ) ( * Nl4main_y3 lam18n4 ) ( - ( - ( + 0 ( * RFN1_main_y 1 ) ) RFN1_main_y ) ) ) 0 ) ( = ( + ( * Nl4main_a1 lam18n2 ) ( * Nl4main_a2 lam18n3 ) ( * Nl4main_a3 lam18n4 ) ( - ( - ( + ( + ( + 0 ( * RFN1_main_x 1 ) ) ( * RFN1_main_y ( - 1 ) ) ) RFN1_main_a ) RFN1_main_a ) ) ) 0 ) ( = ( + ( * Nl4main_b1 lam18n2 ) ( * Nl4main_b2 lam18n3 ) ( * Nl4main_b3 lam18n4 ) ( - ( - ( + ( + ( + 0 ( * RFN1_main_x ( - 1 ) ) ) ( * RFN1_main_y 1 ) ) RFN1_main_b ) RFN1_main_b ) ) ) 0 ) ) ) ( or ( and ( and ( >= lam12n0 0 ) ( >= lam12n1 0 ) ( >= lam12n2 0 ) ( >= lam12n3 0 ) ( > ( + ( * Nl4CT1 lam12n1 ) ( * Nl4CT2 lam12n2 ) ( * Nl4CT3 lam12n3 ) ( - 1 ( - RFN1_CT ) ) ) 0 ) ( = ( + ( * ( - 1 ) lam12n0 ) ( * Nl4main_x1 lam12n1 ) ( * Nl4main_x2 lam12n2 ) ( * Nl4main_x3 lam12n3 ) ( - ( - RFN1_main_x ) ) ) 0 ) ( = ( + ( * Nl4main_y1 lam12n1 ) ( * Nl4main_y2 lam12n2 ) ( * Nl4main_y3 lam12n3 ) ( - ( - RFN1_main_y ) ) ) 0 ) ( = ( + ( * Nl4main_a1 lam12n1 ) ( * Nl4main_a2 lam12n2 ) ( * Nl4main_a3 lam12n3 ) ( - ( - RFN1_main_a ) ) ) 0 ) ( = ( + ( * Nl4main_b1 lam12n1 ) ( * Nl4main_b2 lam12n2 ) ( * Nl4main_b3 lam12n3 ) ( - ( - RFN1_main_b ) ) ) 0 ) ) ( and ( >= lam13n0 0 ) ( >= lam13n1 0 ) ( >= lam13n2 0 ) ( >= lam13n3 0 ) ( > ( + ( * Nl4CT1 lam13n1 ) ( * Nl4CT2 lam13n2 ) ( * Nl4CT3 lam13n3 ) ( - 1 ( + ( - ( + ( + RFN1_CT ( * RFN1_main_x ( - 1 ) ) ) ( * RFN1_main_y ( - 1 ) ) ) RFN1_CT ) 1 ) ) ) 0 ) ( = ( + ( * ( - 1 ) lam13n0 ) ( * Nl4main_x1 lam13n1 ) ( * Nl4main_x2 lam13n2 ) ( * Nl4main_x3 lam13n3 ) ( - ( - ( + 0 ( * RFN1_main_x 1 ) ) RFN1_main_x ) ) ) 0 ) ( = ( + ( * Nl4main_y1 lam13n1 ) ( * Nl4main_y2 lam13n2 ) ( * Nl4main_y3 lam13n3 ) ( - ( - ( + 0 ( * RFN1_main_y 1 ) ) RFN1_main_y ) ) ) 0 ) ( = ( + ( * Nl4main_a1 lam13n1 ) ( * Nl4main_a2 lam13n2 ) ( * Nl4main_a3 lam13n3 ) ( - ( - ( + ( + ( + 0 ( * RFN1_main_x 1 ) ) ( * RFN1_main_y ( - 1 ) ) ) RFN1_main_a ) RFN1_main_a ) ) ) 0 ) ( = ( + ( * Nl4main_b1 lam13n1 ) ( * Nl4main_b2 lam13n2 ) ( * Nl4main_b3 lam13n3 ) ( - ( - ( + ( + ( + 0 ( * RFN1_main_x ( - 1 ) ) ) ( * RFN1_main_y 1 ) ) RFN1_main_b ) RFN1_main_b ) ) ) 0 ) ) ) ( and ( and ( >= lam16n0 0 ) ( >= lam16n1 0 ) ( >= lam16n2 0 ) ( >= lam16n3 0 ) ( >= lam16n4 0 ) ( > ( + ( * 1 lam16n1 ) ( * Nl4CT1 lam16n2 ) ( * Nl4CT2 lam16n3 ) ( * Nl4CT3 lam16n4 ) ( - 1 ( - RFN1_CT ) ) ) 0 ) ( = ( + ( * 1 lam16n1 ) ( * Nl4main_x1 lam16n2 ) ( * Nl4main_x2 lam16n3 ) ( * Nl4main_x3 lam16n4 ) ( - ( - RFN1_main_x ) ) ) 0 ) ( = ( + ( * ( - 1 ) lam16n0 ) ( * Nl4main_y1 lam16n2 ) ( * Nl4main_y2 lam16n3 ) ( * Nl4main_y3 lam16n4 ) ( - ( - RFN1_main_y ) ) ) 0 ) ( = ( + ( * Nl4main_a1 lam16n2 ) ( * Nl4main_a2 lam16n3 ) ( * Nl4main_a3 lam16n4 ) ( - ( - RFN1_main_a ) ) ) 0 ) ( = ( + ( * Nl4main_b1 lam16n2 ) ( * Nl4main_b2 lam16n3 ) ( * Nl4main_b3 lam16n4 ) ( - ( - RFN1_main_b ) ) ) 0 ) ) ( and ( >= lam17n0 0 ) ( >= lam17n1 0 ) ( >= lam17n2 0 ) ( >= lam17n3 0 ) ( >= lam17n4 0 ) ( > ( + ( * 1 lam17n1 ) ( * Nl4CT1 lam17n2 ) ( * Nl4CT2 lam17n3 ) ( * Nl4CT3 lam17n4 ) ( - 1 ( + ( - ( + ( + RFN1_CT ( * RFN1_main_x ( - 1 ) ) ) ( * RFN1_main_y ( - 1 ) ) ) RFN1_CT ) 1 ) ) ) 0 ) ( = ( + ( * 1 lam17n1 ) ( * Nl4main_x1 lam17n2 ) ( * Nl4main_x2 lam17n3 ) ( * Nl4main_x3 lam17n4 ) ( - ( - ( + 0 ( * RFN1_main_x 1 ) ) RFN1_main_x ) ) ) 0 ) ( = ( + ( * ( - 1 ) lam17n0 ) ( * Nl4main_y1 lam17n2 ) ( * Nl4main_y2 lam17n3 ) ( * Nl4main_y3 lam17n4 ) ( - ( - ( + 0 ( * RFN1_main_y 1 ) ) RFN1_main_y ) ) ) 0 ) ( = ( + ( * Nl4main_a1 lam17n2 ) ( * Nl4main_a2 lam17n3 ) ( * Nl4main_a3 lam17n4 ) ( - ( - ( + ( + ( + 0 ( * RFN1_main_x 1 ) ) ( * RFN1_main_y ( - 1 ) ) ) RFN1_main_a ) RFN1_main_a ) ) ) 0 ) ( = ( + ( * Nl4main_b1 lam17n2 ) ( * Nl4main_b2 lam17n3 ) ( * Nl4main_b3 lam17n4 ) ( - ( - ( + ( + ( + 0 ( * RFN1_main_x ( - 1 ) ) ) ( * RFN1_main_y 1 ) ) RFN1_main_b ) RFN1_main_b ) ) ) 0 ) ) ) ) ) ( or ( and ( >= lam11n0 0 ) ( >= lam11n1 0 ) ( >= lam11n2 0 ) ( >= lam11n3 0 ) ( > ( + ( * Nl4CT1 lam11n1 ) ( * Nl4CT2 lam11n2 ) ( * Nl4CT3 lam11n3 ) ( - 1 ) ) 0 ) ( = ( + ( * ( - 1 ) lam11n0 ) ( * Nl4main_x1 lam11n1 ) ( * Nl4main_x2 lam11n2 ) ( * Nl4main_x3 lam11n3 ) ) 0 ) ( = ( + ( * Nl4main_y1 lam11n1 ) ( * Nl4main_y2 lam11n2 ) ( * Nl4main_y3 lam11n3 ) ) 0 ) ( = ( + ( * Nl4main_a1 lam11n1 ) ( * Nl4main_a2 lam11n2 ) ( * Nl4main_a3 lam11n3 ) ) 0 ) ( = ( + ( * Nl4main_b1 lam11n1 ) ( * Nl4main_b2 lam11n2 ) ( * Nl4main_b3 lam11n3 ) ) 0 ) ) ( and ( >= lam15n0 0 ) ( >= lam15n1 0 ) ( >= lam15n2 0 ) ( >= lam15n3 0 ) ( >= lam15n4 0 ) ( > ( + ( * 1 lam15n1 ) ( * Nl4CT1 lam15n2 ) ( * Nl4CT2 lam15n3 ) ( * Nl4CT3 lam15n4 ) ( - 1 ) ) 0 ) ( = ( + ( * 1 lam15n1 ) ( * Nl4main_x1 lam15n2 ) ( * Nl4main_x2 lam15n3 ) ( * Nl4main_x3 lam15n4 ) ) 0 ) ( = ( + ( * ( - 1 ) lam15n0 ) ( * Nl4main_y1 lam15n2 ) ( * Nl4main_y2 lam15n3 ) ( * Nl4main_y3 lam15n4 ) ) 0 ) ( = ( + ( * Nl4main_a1 lam15n2 ) ( * Nl4main_a2 lam15n3 ) ( * Nl4main_a3 lam15n4 ) ) 0 ) ( = ( + ( * Nl4main_b1 lam15n2 ) ( * Nl4main_b2 lam15n3 ) ( * Nl4main_b3 lam15n4 ) ) 0 ) ) ) ))
(check-sat)
(exit)
